(set-logic QF_SLIA)
(declare-const result String)
(declare-const attack String)
(declare-const prefix RegLan)
(declare-const infix RegLan)
(declare-const postfix RegLan)
(declare-const postfixs String)

(assert (str.in_re attack (re.++ prefix ((_ re.loop 5000 5000) infix) postfix)))
(assert (= prefix 
     (re.++  (str.to_re "\u{3b}") (re.++  (str.to_re "\u{43}") (re.++  (str.to_re "\u{79}") (re.++  (str.to_re "\u{6e}") (re.++  (str.to_re "\u{75}") (re.++  (str.to_re "\u{73}")  (str.to_re "\u{5f}")))))))
))
(assert (= infix 
        (re.inter (re.+ re.allchar )  (re.++ (re.+ re.allchar ) (re.*  (str.to_re "\u{20}") )) (re.*  (str.to_re "\u{20}") ) )
))
(assert (= postfix 
        (str.to_re "")
))
(assert (str.in_re postfixs postfix))
(assert (>= (str.len postfixs) 1))
(assert (= result (str.++ attack postfixs)))
(check-sat)
(get-model)